c --- [ banner ] -------------------------------------------------------------
c 
c CaDiCaL Radically Simplified CDCL SAT Solver
c Copyright (c) 2016-2021 A. Biere, M. Fleury, N. Froleyks
c 
c Version 1.5.2 a5f15211db36c3956764e18194dd5bd63bf3b5e6
c g++ (GCC) 9.3.0 -Wall -Wextra -O3 -DNDEBUG
c Fri Oct 21 01:27:37 EDT 2022 Linux gra-login3 3.10.0-1160.66.1.el7.x86_64 x86_64
c 
c --- [ limit ] --------------------------------------------------------------
c 
c setting conflict limit to 200000 conflicts (due to '200000')
c 
c --- [ parsing input ] ------------------------------------------------------
c 
c reading DIMACS file from '33.cubes4153.adj'
c opening file to read '33.cubes4153.adj'
c found 'p cnf 6160 1595474' header
c parsed 1595474 clauses in 19.10 seconds process time
c closing file '33.cubes4153.adj'
c after reading 1457566768 bytes 1390.0 MB
c 
c --- [ options ] ------------------------------------------------------------
c 
c all options are set to their default value
c 
c --- [ solving ] ------------------------------------------------------------
c 
c time measured in process time since initialization
c 
c  seconds    reductions  redundant   irredundant
c          MB     restarts       trail       variables
c            level   conflicts       glue         remaining
c 
c * 19.10 1378  0 0   0    0    0  0% 0 1595422 2470 40%
c { 20.27 1431  0 0   0    0    0  0% 0 1595422 2470 40%
c i 21.43 1463 979 0   0   30   27 34% 4 1595422 2453 40%
c i 23.96 1504 524 0  10  123   94 29% 15 1595422 2444 40%
c i 24.86 1507 427 0  19  155  123 28% 22 1595422 2443 40%
c i 25.02 1508 415 0  20  159  126 28% 22 1595422 2442 40%
c i 25.14 1508 396 0  22  166  132 28% 22 1595422 2427 39%
c i 25.38 1510 375 0  25  176  141 28% 24 1595422 2426 39%
c i 25.60 1510 344 0  28  196  158 28% 25 1595422 2425 39%
c i 25.99 1513 315 0  35  223  180 28% 31 1595422 2424 39%
c i 26.28 1513 302 0  39  247  200 28% 34 1595422 2423 39%
c i 26.60 1514 290 0  44  267  215 28% 36 1595422 2422 39%
c - 31.10 1444 268 1  54  300  244 28% 39 280774 2422 39%
c i 31.33 1380 257 1  58  317  258 28% 39 280774 2421 39%
c i 31.71 1380 236 1  69  369  306 28% 41 280774 2415 39%
c i 32.00 1380 214 1  76  421  349 28% 41 280774 2392 39%
c i 32.32 1381 193 1  82  494  414 29% 41 280774 2391 39%
c i 32.45 1381 174 1  82  568  475 29% 40 280774 2390 39%
c i 32.46 1381 174 1  82  569  475 29% 40 280774 2389 39%
c i 32.74 1381 163 1  86  638  536 29% 41 280774 2388 39%
c 
c  seconds     reductions  redundant   irredundant
c          MB      restarts       trail       variables
c             level   conflicts       glue         remaining
c 
c i 32.78 1381 161 1  86  649  544 29% 41 280774 2387 39%
c i 32.83 1381 159 1  86  657  551 29% 40 280774 2386 39%
c i 32.84 1381 158 1  86  665  558 29% 40 280774 2385 39%
c i 32.87 1381 156 1  86  674  565 29% 40 280774 2384 39%
c i 32.89 1381 156 1  86  675  565 29% 40 280774 2383 39%
c i 32.90 1381 156 1  86  682  570 29% 40 280774 2382 39%
c i 32.92 1381 156 1  86  687  574 29% 40 280774 2381 39%
c i 32.93 1381 156 1  86  692  578 29% 40 280774 2380 39%
c i 33.10 1381 146 1  88  749  626 29% 39 280774 2373 39%
c i 33.15 1381 142 1  88  782  651 29% 38 280774 2368 38%
c } 33.53 1381 114 1  88 1001  804 28% 32 280774 2368 38%
c [ 33.53 1381  0 1  88 1001  804  0% 0 280774 2368 38%
c O 33.55 1381  1 1  88 1002  805 15% 1 280774 2367 38%
c i 33.55 1381  1 1  88 1004  806 13% 1 280774 2336 38%
c - 34.59 1472 24 2  88 1173  815 31% 17 279466 2336 38%
c i 35.04 1472 25 2  88 1807 1277 32% 18 279466 2335 38%
c i 35.19 1472 26 2  89 2074 1461 32% 19 279466 2334 38%
c i 35.19 1472 26 2  89 2084 1464 32% 19 279466 2333 38%
c i 35.26 1472 25 2  89 2272 1585 32% 19 279466 2332 38%
c i 35.28 1472 26 2  89 2308 1609 32% 20 279466 2331 38%
c 
c  seconds    reductions  redundant   irredundant
c          MB     restarts       trail       variables
c            level   conflicts       glue         remaining
c 
c - 35.68 1471 26 3  89 2474 1305 32% 21 279452 2331 38%
c ] 36.13 1471 26 3  89 3002 1682 52% 21 279452 2331 38%
c { 36.13 1471 114 3  89 3002 1682 75% 32 279452 2331 38%
c F 36.15 1471 114 3  89 3003 1683 75% 32 279452 2331 38%
c i 36.30 1471 104 3  89 3114 1772 73% 30 279452 2330 38%
c i 36.37 1471 101 3  90 3179 1826 71% 30 279452 2329 38%
c i 36.39 1471 102 3  90 3189 1835 71% 30 279452 2328 38%
c i 36.51 1471 100 3  95 3241 1882 70% 30 279452 2327 38%
c i 36.53 1471 99 3  95 3254 1891 70% 30 279452 2326 38%
c i 36.56 1471 99 3  97 3279 1913 69% 30 279452 2325 38%
c i 36.68 1471 100 3 108 3325 1955 68% 32 279452 2324 38%
c i 37.03 1471 99 3 134 3458 2074 66% 33 279452 2323 38%
c i 37.22 1471 98 3 141 3560 2167 65% 33 279452 2322 38%
c i 38.25 1471 97 3 197 3915 2472 62% 36 279452 2321 38%
c i 38.42 1471 95 3 213 4015 2559 61% 36 279452 2312 38%
c - 38.97 1351 92 4 217 4210 2003 60% 36 221167 2312 38%
c i 39.29 1351 90 4 225 4335 2106 59% 36 221167 2311 38%
c i 39.31 1351 90 4 225 4353 2123 59% 36 221167 2310 38%
c i 39.33 1351 90 4 225 4354 2123 59% 36 221167 2309 37%
c i 40.66 1351 91 4 276 4686 2404 57% 37 221167 2308 37%
c 
c  seconds    reductions  redundant   irredundant
c          MB     restarts       trail       variables
c            level   conflicts       glue         remaining
c 
c i 40.69 1351 91 4 278 4706 2419 57% 37 221167 2307 37%
c i 40.79 1351 88 4 278 4891 2555 57% 37 221167 2306 37%
c i 40.85 1351 86 4 278 5002 2638 57% 37 221167 2305 37%
c 3 41.17 1351 86 4 278 5002 3320 57% 37 221138 2301 37%
c 2 41.21 1351 86 4 278 5002 3365 57% 37 221130 2301 37%
c p 46.47 1351 86 4 278 5002 5514 57% 37 221130 2227 36%
c d 46.84 1351 86 4 278 5002 5394 57% 37 220520 2226 36%
c # 48.00 1351 76 4 307 6007 6207 55% 36 220520 2226 36%
c - 48.37 1352 73 5 307 6227 2710 55% 35 220520 2226 36%
c } 48.56 1352 67 5 307 7004 3319 55% 34 220520 2226 36%
c [ 48.56 1352 26 5 307 7004 3319 52% 21 220520 2226 36%
c - 49.31 1353 31 6 308 8646 3092 53% 25 220520 2226 36%
c I 50.03 1353 32 6 309 10011 4124 53% 26 220520 2226 36%
c - 51.95 1353 42 7 311 11467 3714 52% 33 220520 2226 36%
c - 54.65 1353 49 8 312 14691 4183 50% 39 220520 2226 36%
c ] 54.91 1353 49 8 312 15007 4412 50% 39 220520 2226 36%
c { 54.91 1353 67 8 312 15007 4412 55% 34 220520 2226 36%
c 2 54.96 1353 67 8 312 15007 5172 55% 34 220518 2226 36%
c p 56.17 1353 67 8 312 15007 7415 55% 34 220518 2226 36%
c B 56.28 1353 67 8 312 15014 7422 55% 34 220518 2226 36%
c 
c  seconds    reductions   redundant   irredundant
c          MB     restarts        trail       variables
c            level    conflicts       glue         remaining
c 
c } 58.54 1353 56 8 378 18110 9629 54% 32 220518 2226 36%
c 1 58.54 1353 56 8 378 18110 9629 54% 32 220518 2226 36%
c 
c --- [ writing output ] -----------------------------------------------------
c 
c writing simplified CNF to DIMACS file 'simp/33.cubes4153.adj.simp1'
c * 58.54 1353 56 8 378 18110 9629 54% 32 220518 2226 36%
c opening file to write 'simp/33.cubes4153.adj.simp1'
c writing 'p cnf 6160 220518' header
c closing file 'simp/33.cubes4153.adj.simp1'
c after writing 104901356 bytes 100.0 MB
c wrote 220518 clauses in 0.74 seconds process time
c 
c --- [ writing extension ] --------------------------------------------------
c 
c writing extension stack to 'simp/33.cubes4153.adj.ext1'
c opening file to write 'simp/33.cubes4153.adj.ext1'
c closing file 'simp/33.cubes4153.adj.ext1'
c after writing 11815 bytes 0.0 MB
c wrote 795 witnesses in 0.00 seconds process time
c 
c --- [ result ] -------------------------------------------------------------
c 
s SATISFIABLE
c 
c --- [ run-time profiling ] -------------------------------------------------
c 
c process time taken by individual solving procedures
c (percentage relative to process time for solving)
c 
c        32.14   81.50% search
c        22.04   55.87% unstable
c        19.10   48.43% parse
c         8.94   22.68% stable
c         7.30   18.50% simplify
c         6.48   16.42% probe
c         1.16    2.95% lucky
c         0.06    0.15% ternary
c   =================================
c        39.44   66.52% solve
c 
c last line shows process time for solving
c (percentage relative to total process time)
c 
c --- [ statistics ] ---------------------------------------------------------
c 
c chronological:              3641        20.10 %  of conflicts
c conflicts:                 18110       459.17    per second
c decisions:                 61006      1546.79    per second
c fixed:                       785        12.74 %  of all variables
c learned:                   17677        97.61 %  per conflict
c learned_lits:            3607043       100.00 %  learned literals
c minimized:                     0         0.00 %  learned literals
c shrunken:                2048346        56.79 %  learned literals
c minishrunken:             285830         7.92 %  learned literals
c propagations:            2544993         0.06 M  per second
c reduced:                    7215        39.84 %  per conflict
c rephased:                      5      3622.00    interval
c restarts:                    378        47.91    interval
c stabilizing:                   2        55.24 %  of conflicts
c substituted:                   5         0.08 %  of all variables
c subsumed:                   3775         0.12 %  of all clauses
c ternary:                    1493         0.49 %  of resolved
c weakened:                     10         2.00    average size
c 
c seconds are measured in process time for solving
c 
c --- [ resources ] ----------------------------------------------------------
c 
c total process time since initialization:        59.29    seconds
c total real time since initialization:           59.56    seconds
c maximum resident set size of process:         1594.18    MB
c 
c --- [ shutting down ] ------------------------------------------------------
c 
c exit 10
WARNING! DIMACS header mismatch: wrong number of variables.
============================[ Problem Statistics ]=============================
|                                                                             |
|  Number of variables:          6120                                         |
|  Number of clauses:          220518                                         |
|  Parse time:                   1.38 s                                       |
|  Simplification time:          0.03 s                                       |
|                                                                             |
============================[ Search Statistics ]====================================================
| Conflicts |          ORIGINAL         |          LEARNT          | Num Sols |      SUBGRAPHS      |
|           |    Vars  Clauses Literals |    Limit  Clauses Lit/Cl |          | Canonical Noncanon. |
=====================================================================================================
|       144 |    6029   220562 22675758 |     2000      144     70 |        0 |        25        44 |
|       297 |    6029   220565 22675808 |     2000      297    104 |        0 |        27        47 |
|       544 |    6029   220587 22676453 |     2000      544    104 |        0 |        42        69 |
|      2397 |    6029   222103 22702434 |     3600     1397     14 |        0 |       381      1585 |
|      7083 |    6029   226283 22783100 |     5007     4290     17 |        0 |      1443      5765 |
|     13036 |    6029   231477 22876301 |     7554     4590     14 |        0 |      2600     10959 |
|     22230 |    6029   239532 23003843 |     9993     5623     13 |        0 |      4138     19014 |
|     31928 |    6029   247522 23123330 |    11206    10334     13 |        0 |      5257     27004 |
|     42052 |    6029   255084 23239142 |    13613     8665     31 |        0 |      6663     34566 |
|     49477 |    6029   258665 23299004 |    14817     9294     12 |        0 |      7225     38147 |
|     58686 |    6029   262108 23343830 |    16012    11098     50 |        0 |      7781     41590 |
|     72109 |    6029   266882 23423471 |    17215    16524     38 |        0 |      8475     46364 |
|     97992 |    6029   279791 23607703 |    20821    14813     23 |        0 |     10405     59273 |
|    156508 |    6029   318846 24161503 |    26811    15319     15 |        0 |     15761     98328 |
|    200925 |    6029   334071 24372285 |    30426    17751     28 |        0 |     17602    113553 |
=====================================================================================================
Number of solutions   : 0
Canonical subgraphs   : 19018          (37 /sec)
          order  3    : 1              (inf /sec)
          order  4    : 1              (inf /sec)
          order  5    : 1              (inf /sec)
          order  6    : 1              (inf /sec)
          order  7    : 1              (inf /sec)
          order  8    : 2              (1366 /sec)
          order  9    : 7              (354 /sec)
          order 10    : 34             (120 /sec)
          order 11    : 153            (37 /sec)
          order 12    : 860            (42 /sec)
          order 13    : 1467           (75 /sec)
          order 14    : 4817           (53 /sec)
          order 15    : 9732           (36 /sec)
          order 16    : 1562           (20 /sec)
          order 17    : 204            (17 /sec)
          order 18    : 160            (12 /sec)
          order 19    : 11             (9 /sec)
          order 20    : 4              (10 /sec)
          order 21    : 0              (-nan /sec)
          order 22    : 0              (-nan /sec)
Noncanonical subgraphs: 126591         (270 /sec)
          order  3    : 0              (-nan /sec)
          order  4    : 0              (-nan /sec)
          order  5    : 0              (-nan /sec)
          order  6    : 0              (-nan /sec)
          order  7    : 0              (-nan /sec)
          order  8    : 0              (-nan /sec)
          order  9    : 0              (-nan /sec)
          order 10    : 0              (-nan /sec)
          order 11    : 0              (-nan /sec)
          order 12    : 0              (-nan /sec)
          order 13    : 17068          (2094 /sec)
          order 14    : 10953          (2774 /sec)
          order 15    : 18453          (1030 /sec)
          order 16    : 77613          (186 /sec)
          order 17    : 1949           (137 /sec)
          order 18    : 417            (90 /sec)
          order 19    : 138            (58 /sec)
          order 20    : 0              (-nan /sec)
          order 21    : 0              (-nan /sec)
Canonicity checking   : 508.896 s
Noncanonicity checking: 468.464 s
Total canonicity time : 977.36 s
database reductions   : 25
restarts              : 571
conflicts             : 243938         (235 /sec)
decisions             : 460737         (0.00 % random) (444 /sec)
propagations          : 26689630       (25741 /sec)
conflict literals     : 14991695       (49.95 % deleted)
actual reward         : 0.080306
Memory used           : 286.00 MB
CPU time              : 1036.85 s

UNSATISFIABLE
